************************************************************************
file with basedata            : mm26_.bas
initial value random generator: 7051
************************************************************************
projects                      :  1
jobs (incl. supersource/sink ):  12
horizon                       :  82
RESOURCES
  - renewable                 :  2   R
  - nonrenewable              :  2   N
  - doubly constrained        :  0   D
************************************************************************
PROJECT INFORMATION:
pronr.  #jobs rel.date duedate tardcost  MPM-Time
    1     10      0       14        7       14
************************************************************************
PRECEDENCE RELATIONS:
jobnr.    #modes  #successors   successors
   0        1          3           1   2   3
   1        3          1           5
   2        3          1          10
   3        3          3           4   6   7
   4        3          2           9  10
   5        3          2           7   8
   6        3          2           8   9
   7        3          1           9
   8        3          1          11
   9        3          1          11
  10        3          1          11
  11        1          0        
************************************************************************
REQUESTS/DURATIONS:
jobnr. mode duration  R 1  R 2  R 3  R 4  E(W 1)  E(W 2)
------------------------------------------------------------------------
  0      1     0       0    0    0    0     0       0
  1      1     6       0    5    7    0    30      42
  2      1     2       9    0    0    5    18      10
  3      1     3       0    7    8    0    21      24
  4      1     4       0    2    7    0     8      28
  5      1     4       0    7    2    0    28       8
  6      1     1       0    4    0    9     4       9
  7      1     3       0    6    0    8    18      24
  8      1     4       9    0    0    8    36      32
  9      1     1       0    6    0    6     6       6
 10      1     6       0    2    7    0    12      42
 11      1     0       0    0    0    0     0       0
************************************************************************
RESOURCEAVAILABILITIES:
  R 1  R 2
   43   65
************************************************************************
RESOURCE LIMITS:
jobnr.  l(R 1)  u(R 1)  l(R 2)  u(R 2)
------------------------------------------------------------------------
  0        0       0       0       0
  1        3       5       4       7
  2        5       9       3       5
  3        4       7       4       8
  4        1       2       4       7
  5        4       7       1       2
  6        2       4       5       9
  7        3       6       4       8
  8        5       9       4       8
  9        3       6       3       6
 10        1       2       4       7
 11        0       0       0       0
************************************************************************
SCENARIOS:
------------------------------------------------------------------------
RESOURCE k = 1
s = 1: (0, 54, 24, 21, 13, 26, 5, 23, 49, 6, 10, 0)
s = 2: (0, 22, 18, 19, 6, 21, 4, 21, 42, 7, 17, 0)
s = 3: (0, 33, 15, 15, 13, 36, 5, 12, 66, 6, 10, 0)
s = 4: (0, 30, 19, 19, 9, 45, 5, 12, 25, 6, 14, 0)
s = 5: (0, 30, 25, 21, 10, 23, 5, 15, 34, 4, 16, 0)
s = 6: (0, 40, 22, 16, 5, 25, 4, 22, 41, 7, 19, 0)
s = 7: (0, 43, 17, 32, 8, 19, 3, 11, 30, 9, 19, 0)
s = 8: (0, 48, 21, 20, 5, 36, 3, 28, 26, 6, 9, 0)
s = 9: (0, 42, 21, 31, 9, 35, 4, 12, 34, 5, 10, 0)
s = 10: (0, 40, 21, 17, 7, 28, 5, 25, 34, 5, 17, 0)
s = 11: (0, 29, 20, 23, 10, 30, 7, 22, 52, 8, 7, 0)
s = 12: (0, 26, 14, 24, 9, 34, 4, 24, 37, 7, 14, 0)
s = 13: (0, 36, 18, 16, 14, 28, 5, 18, 42, 6, 9, 0)
s = 14: (0, 35, 30, 17, 11, 21, 3, 32, 25, 6, 8, 0)
s = 15: (0, 33, 22, 18, 9, 24, 6, 29, 29, 5, 18, 0)
s = 16: (0, 26, 18, 15, 8, 16, 4, 12, 37, 4, 8, 0)
s = 17: (0, 19, 14, 31, 6, 31, 5, 18, 48, 6, 7, 0)
s = 18: (0, 33, 20, 22, 12, 22, 3, 15, 28, 10, 17, 0)
s = 19: (0, 31, 16, 21, 9, 27, 5, 31, 20, 8, 9, 0)
s = 20: (0, 24, 16, 20, 12, 43, 5, 23, 49, 6, 9, 0)
s = 21: (0, 31, 18, 18, 11, 25, 6, 19, 37, 6, 8, 0)
s = 22: (0, 23, 25, 15, 14, 27, 5, 13, 30, 9, 10, 0)
s = 23: (0, 28, 15, 30, 7, 31, 4, 20, 29, 8, 18, 0)
s = 24: (0, 18, 16, 14, 9, 24, 6, 16, 21, 8, 16, 0)
s = 25: (0, 39, 12, 22, 11, 37, 5, 16, 28, 7, 13, 0)
s = 26: (0, 22, 16, 15, 10, 39, 5, 21, 57, 8, 17, 0)
s = 27: (0, 36, 20, 34, 7, 34, 4, 25, 24, 8, 8, 0)
s = 28: (0, 37, 16, 16, 7, 31, 3, 23, 29, 7, 20, 0)
s = 29: (0, 23, 22, 25, 7, 45, 6, 16, 37, 8, 8, 0)
s = 30: (0, 18, 15, 19, 8, 26, 3, 15, 61, 5, 13, 0)
s = 31: (0, 55, 17, 14, 9, 34, 4, 25, 27, 6, 18, 0)
s = 32: (0, 28, 12, 29, 5, 27, 6, 17, 27, 4, 11, 0)
s = 33: (0, 25, 15, 21, 10, 33, 5, 32, 35, 7, 12, 0)
s = 34: (0, 22, 18, 12, 6, 21, 4, 25, 39, 9, 11, 0)
s = 35: (0, 41, 28, 32, 9, 18, 3, 34, 41, 5, 9, 0)
s = 36: (0, 28, 28, 20, 12, 28, 5, 25, 50, 4, 15, 0)
s = 37: (0, 20, 17, 17, 14, 32, 4, 14, 43, 6, 16, 0)
s = 38: (0, 48, 19, 20, 7, 37, 5, 28, 37, 8, 8, 0)
s = 39: (0, 25, 27, 16, 11, 20, 3, 15, 33, 7, 7, 0)
s = 40: (0, 40, 20, 32, 11, 20, 4, 12, 32, 4, 14, 0)
s = 41: (0, 29, 12, 17, 5, 37, 4, 11, 54, 11, 13, 0)
s = 42: (0, 21, 14, 14, 6, 20, 4, 25, 40, 5, 12, 0)
s = 43: (0, 28, 29, 26, 13, 23, 4, 25, 38, 4, 17, 0)
s = 44: (0, 25, 15, 14, 13, 25, 6, 23, 36, 5, 11, 0)
s = 45: (0, 35, 14, 13, 13, 30, 4, 17, 40, 5, 13, 0)
s = 46: (0, 52, 13, 17, 7, 27, 4, 11, 55, 5, 11, 0)
s = 47: (0, 35, 14, 16, 8, 55, 3, 10, 42, 6, 13, 0)
s = 48: (0, 36, 13, 14, 7, 27, 4, 17, 25, 5, 8, 0)
s = 49: (0, 37, 13, 27, 11, 27, 4, 25, 29, 6, 11, 0)
s = 50: (0, 24, 17, 32, 6, 24, 4, 14, 46, 5, 12, 0)
s = 51: (0, 29, 11, 14, 7, 33, 4, 26, 23, 5, 9, 0)
s = 52: (0, 24, 16, 20, 10, 39, 3, 14, 33, 7, 12, 0)
s = 53: (0, 27, 24, 19, 8, 20, 3, 19, 43, 4, 11, 0)
s = 54: (0, 31, 14, 23, 6, 17, 6, 17, 40, 8, 14, 0)
s = 55: (0, 26, 18, 13, 6, 36, 6, 14, 51, 7, 8, 0)
s = 56: (0, 22, 17, 22, 8, 16, 5, 14, 38, 5, 13, 0)
s = 57: (0, 39, 18, 18, 8, 32, 3, 16, 57, 8, 13, 0)
s = 58: (0, 21, 19, 15, 6, 23, 3, 27, 37, 6, 7, 0)
s = 59: (0, 20, 18, 22, 7, 23, 5, 11, 38, 7, 19, 0)
s = 60: (0, 29, 15, 13, 5, 30, 4, 22, 23, 9, 10, 0)
s = 61: (0, 22, 19, 18, 9, 37, 3, 18, 38, 6, 10, 0)
s = 62: (0, 19, 11, 17, 14, 37, 7, 11, 32, 6, 13, 0)
s = 63: (0, 28, 14, 13, 5, 33, 3, 23, 47, 7, 11, 0)
s = 64: (0, 36, 20, 13, 8, 27, 3, 20, 24, 6, 7, 0)
s = 65: (0, 32, 20, 17, 7, 30, 3, 27, 41, 9, 10, 0)
s = 66: (0, 22, 16, 18, 6, 35, 3, 13, 29, 6, 11, 0)
s = 67: (0, 30, 22, 21, 8, 16, 4, 15, 57, 5, 16, 0)
s = 68: (0, 39, 15, 20, 8, 21, 5, 16, 63, 6, 11, 0)
s = 69: (0, 23, 25, 13, 6, 21, 4, 14, 41, 7, 14, 0)
s = 70: (0, 21, 25, 19, 9, 35, 4, 17, 34, 5, 13, 0)
s = 71: (0, 34, 13, 21, 8, 35, 4, 22, 23, 4, 18, 0)
s = 72: (0, 47, 24, 16, 8, 37, 4, 16, 26, 9, 16, 0)
s = 73: (0, 31, 18, 25, 7, 17, 6, 15, 24, 8, 15, 0)
s = 74: (0, 25, 25, 15, 8, 30, 5, 28, 43, 10, 8, 0)
s = 75: (0, 20, 25, 26, 12, 30, 3, 13, 40, 7, 15, 0)
s = 76: (0, 35, 24, 18, 7, 26, 4, 18, 32, 6, 10, 0)
s = 77: (0, 28, 27, 30, 7, 44, 4, 16, 30, 7, 17, 0)
s = 78: (0, 21, 15, 14, 8, 37, 5, 19, 43, 7, 14, 0)
s = 79: (0, 25, 23, 16, 10, 35, 5, 17, 33, 9, 13, 0)
s = 80: (0, 19, 15, 15, 7, 34, 6, 21, 40, 4, 17, 0)
s = 81: (0, 24, 12, 15, 7, 46, 6, 20, 39, 10, 16, 0)
s = 82: (0, 30, 15, 27, 6, 46, 6, 17, 41, 4, 18, 0)
s = 83: (0, 41, 20, 34, 9, 23, 4, 14, 55, 9, 10, 0)
s = 84: (0, 27, 23, 27, 14, 21, 5, 12, 46, 5, 13, 0)
s = 85: (0, 53, 18, 19, 12, 35, 3, 23, 48, 7, 15, 0)
s = 86: (0, 23, 14, 33, 7, 38, 5, 14, 31, 7, 11, 0)
s = 87: (0, 25, 19, 20, 10, 43, 4, 17, 35, 8, 10, 0)
s = 88: (0, 35, 12, 13, 6, 27, 5, 19, 32, 9, 10, 0)
s = 89: (0, 31, 21, 16, 11, 34, 5, 24, 42, 5, 11, 0)
s = 90: (0, 33, 10, 18, 10, 32, 4, 14, 20, 12, 10, 0)
s = 91: (0, 25, 17, 25, 11, 32, 3, 23, 34, 7, 14, 0)
s = 92: (0, 20, 19, 24, 10, 33, 4, 23, 46, 5, 21, 0)
s = 93: (0, 30, 19, 30, 12, 39, 5, 17, 35, 9, 12, 0)
s = 94: (0, 45, 21, 22, 7, 38, 6, 13, 42, 10, 8, 0)
s = 95: (0, 37, 13, 31, 7, 17, 4, 34, 51, 9, 12, 0)
s = 96: (0, 25, 21, 29, 7, 46, 4, 20, 24, 7, 16, 0)
s = 97: (0, 19, 28, 21, 8, 40, 7, 22, 23, 8, 12, 0)
s = 98: (0, 26, 17, 27, 8, 32, 3, 18, 37, 5, 14, 0)
s = 99: (0, 28, 18, 28, 7, 44, 3, 18, 29, 5, 10, 0)
s = 100: (0, 25, 17, 21, 9, 23, 7, 16, 37, 9, 12, 0)
s = 101: (0, 19, 20, 16, 8, 33, 5, 22, 38, 6, 16, 0)
s = 102: (0, 47, 23, 34, 7, 34, 4, 25, 34, 7, 13, 0)
s = 103: (0, 17, 15, 32, 5, 16, 3, 14, 30, 4, 9, 0)
s = 104: (0, 21, 16, 22, 11, 27, 5, 16, 37, 8, 12, 0)
s = 105: (0, 35, 14, 26, 11, 23, 3, 18, 53, 8, 14, 0)
s = 106: (0, 22, 11, 26, 12, 22, 6, 15, 31, 4, 14, 0)
s = 107: (0, 37, 19, 16, 8, 42, 5, 16, 33, 10, 11, 0)
s = 108: (0, 27, 11, 19, 9, 30, 5, 20, 30, 7, 9, 0)
s = 109: (0, 38, 12, 17, 5, 36, 3, 17, 34, 6, 12, 0)
s = 110: (0, 38, 15, 29, 10, 29, 4, 13, 42, 5, 8, 0)
s = 111: (0, 24, 11, 17, 11, 33, 5, 14, 36, 7, 12, 0)
s = 112: (0, 33, 18, 22, 10, 43, 4, 15, 42, 6, 12, 0)
s = 113: (0, 43, 16, 22, 6, 22, 3, 22, 30, 5, 9, 0)
s = 114: (0, 21, 12, 17, 11, 29, 5, 23, 47, 5, 9, 0)
s = 115: (0, 18, 20, 22, 5, 32, 3, 14, 53, 5, 17, 0)
s = 116: (0, 25, 25, 30, 6, 21, 4, 23, 34, 4, 10, 0)
s = 117: (0, 27, 17, 18, 6, 30, 3, 19, 50, 8, 14, 0)
s = 118: (0, 42, 17, 34, 9, 16, 3, 30, 32, 7, 12, 0)
s = 119: (0, 20, 22, 22, 8, 26, 4, 10, 39, 8, 9, 0)
s = 120: (0, 45, 32, 21, 11, 39, 5, 24, 44, 5, 13, 0)
s = 121: (0, 39, 11, 18, 9, 20, 5, 17, 27, 7, 15, 0)
s = 122: (0, 25, 24, 24, 8, 17, 3, 11, 54, 8, 12, 0)
s = 123: (0, 34, 25, 22, 10, 31, 5, 18, 42, 5, 13, 0)
s = 124: (0, 27, 22, 33, 8, 15, 4, 24, 37, 7, 20, 0)
s = 125: (0, 38, 28, 25, 10, 28, 4, 20, 43, 5, 10, 0)
s = 126: (0, 36, 22, 26, 11, 37, 5, 17, 36, 6, 14, 0)
s = 127: (0, 53, 12, 20, 6, 37, 3, 11, 39, 4, 16, 0)
s = 128: (0, 27, 22, 14, 10, 38, 6, 26, 43, 8, 8, 0)
s = 129: (0, 47, 18, 23, 12, 27, 4, 21, 32, 6, 12, 0)
s = 130: (0, 31, 11, 33, 6, 31, 4, 14, 51, 5, 20, 0)
s = 131: (0, 19, 23, 23, 10, 35, 6, 12, 27, 6, 14, 0)
s = 132: (0, 31, 16, 27, 9, 18, 5, 22, 35, 6, 14, 0)
s = 133: (0, 43, 27, 19, 7, 29, 6, 25, 37, 7, 11, 0)
s = 134: (0, 21, 21, 19, 12, 24, 4, 20, 42, 6, 8, 0)
s = 135: (0, 49, 16, 17, 7, 39, 4, 17, 34, 10, 12, 0)
s = 136: (0, 21, 34, 16, 5, 21, 7, 27, 43, 6, 14, 0)
s = 137: (0, 47, 28, 24, 12, 45, 6, 20, 33, 6, 13, 0)
s = 138: (0, 23, 12, 19, 6, 25, 4, 16, 22, 8, 19, 0)
s = 139: (0, 33, 26, 18, 9, 22, 6, 16, 47, 5, 17, 0)
s = 140: (0, 33, 23, 16, 7, 42, 5, 17, 42, 8, 11, 0)
s = 141: (0, 33, 18, 21, 11, 43, 4, 14, 43, 4, 18, 0)
s = 142: (0, 18, 19, 15, 11, 23, 4, 15, 35, 7, 13, 0)
s = 143: (0, 30, 15, 27, 6, 28, 4, 16, 35, 6, 15, 0)
s = 144: (0, 18, 18, 30, 12, 41, 5, 14, 36, 6, 10, 0)
s = 145: (0, 36, 18, 17, 14, 22, 5, 26, 28, 6, 8, 0)
s = 146: (0, 35, 19, 27, 7, 48, 6, 15, 52, 9, 12, 0)
s = 147: (0, 34, 20, 15, 9, 25, 5, 25, 47, 7, 9, 0)
s = 148: (0, 36, 23, 29, 10, 28, 4, 25, 51, 5, 12, 0)
s = 149: (0, 40, 12, 23, 9, 30, 3, 12, 47, 7, 8, 0)
s = 150: (0, 28, 16, 34, 6, 26, 4, 20, 29, 7, 15, 0)
s = 151: (0, 23, 15, 15, 8, 30, 4, 13, 47, 4, 14, 0)
s = 152: (0, 26, 23, 33, 9, 54, 4, 16, 52, 8, 14, 0)
s = 153: (0, 19, 19, 27, 8, 23, 4, 11, 50, 7, 9, 0)
s = 154: (0, 23, 13, 16, 6, 24, 6, 10, 34, 8, 11, 0)
s = 155: (0, 21, 25, 31, 8, 19, 7, 15, 45, 7, 12, 0)
s = 156: (0, 29, 21, 27, 7, 40, 6, 26, 37, 10, 12, 0)
s = 157: (0, 34, 24, 27, 6, 36, 6, 15, 51, 7, 17, 0)
s = 158: (0, 44, 29, 16, 9, 27, 5, 14, 35, 7, 9, 0)
s = 159: (0, 18, 18, 22, 11, 28, 4, 16, 28, 5, 13, 0)
s = 160: (0, 38, 14, 18, 9, 38, 4, 16, 30, 4, 18, 0)
s = 161: (0, 52, 14, 19, 6, 27, 5, 17, 22, 5, 8, 0)
s = 162: (0, 20, 17, 23, 10, 21, 5, 24, 27, 6, 11, 0)
s = 163: (0, 26, 19, 24, 8, 42, 5, 10, 48, 7, 9, 0)
s = 164: (0, 27, 24, 25, 6, 26, 3, 25, 28, 8, 10, 0)
s = 165: (0, 28, 14, 16, 12, 35, 3, 18, 46, 5, 17, 0)
s = 166: (0, 23, 10, 15, 10, 19, 7, 23, 28, 6, 10, 0)
s = 167: (0, 21, 20, 17, 8, 16, 5, 18, 34, 7, 11, 0)
s = 168: (0, 25, 23, 24, 9, 31, 5, 17, 26, 8, 9, 0)
s = 169: (0, 25, 20, 18, 8, 24, 5, 23, 35, 7, 19, 0)
s = 170: (0, 31, 17, 21, 13, 22, 4, 20, 39, 4, 12, 0)
s = 171: (0, 24, 28, 12, 8, 41, 4, 19, 36, 6, 14, 0)
s = 172: (0, 27, 21, 19, 11, 22, 4, 30, 36, 7, 18, 0)
s = 173: (0, 41, 15, 21, 10, 27, 5, 14, 23, 6, 9, 0)
s = 174: (0, 19, 16, 27, 7, 44, 5, 23, 34, 5, 16, 0)
s = 175: (0, 19, 14, 16, 5, 17, 5, 16, 42, 6, 10, 0)
s = 176: (0, 29, 23, 28, 12, 38, 5, 19, 28, 7, 11, 0)
s = 177: (0, 36, 31, 36, 7, 25, 5, 22, 39, 4, 12, 0)
s = 178: (0, 30, 29, 16, 11, 16, 4, 12, 49, 5, 14, 0)
s = 179: (0, 28, 23, 17, 8, 32, 3, 26, 50, 5, 14, 0)
s = 180: (0, 34, 13, 15, 12, 35, 6, 31, 29, 9, 13, 0)
s = 181: (0, 33, 19, 12, 8, 38, 5, 15, 46, 4, 11, 0)
s = 182: (0, 37, 23, 28, 6, 28, 6, 25, 25, 7, 17, 0)
s = 183: (0, 29, 13, 14, 8, 27, 3, 15, 34, 5, 9, 0)
s = 184: (0, 31, 22, 25, 11, 33, 3, 29, 24, 5, 12, 0)
s = 185: (0, 30, 26, 25, 6, 18, 7, 15, 30, 5, 12, 0)
s = 186: (0, 31, 23, 25, 5, 27, 6, 20, 45, 9, 15, 0)
s = 187: (0, 23, 20, 19, 7, 24, 6, 21, 26, 6, 7, 0)
s = 188: (0, 30, 13, 27, 9, 42, 4, 15, 48, 5, 9, 0)
s = 189: (0, 32, 20, 24, 8, 39, 8, 13, 24, 4, 7, 0)
s = 190: (0, 36, 16, 20, 8, 20, 3, 19, 41, 5, 12, 0)
s = 191: (0, 37, 18, 19, 8, 37, 4, 15, 29, 7, 15, 0)
s = 192: (0, 25, 23, 23, 12, 16, 6, 22, 54, 6, 10, 0)
s = 193: (0, 38, 25, 12, 8, 29, 5, 11, 33, 6, 11, 0)
s = 194: (0, 51, 19, 23, 9, 22, 6, 15, 26, 4, 15, 0)
s = 195: (0, 17, 12, 26, 10, 22, 4, 10, 33, 5, 11, 0)
s = 196: (0, 43, 19, 19, 7, 22, 4, 11, 42, 5, 15, 0)
s = 197: (0, 35, 22, 30, 7, 28, 7, 24, 41, 4, 13, 0)
s = 198: (0, 31, 25, 16, 10, 25, 5, 16, 32, 6, 9, 0)
s = 199: (0, 40, 19, 24, 7, 26, 6, 21, 26, 5, 7, 0)
s = 200: (0, 29, 27, 22, 10, 23, 5, 18, 32, 5, 11, 0)
------------------------------------------------------------------------
RESOURCE k = 2
s = 1: (0, 76, 13, 24, 44, 8, 11, 30, 44, 6, 34, 0)
s = 2: (0, 31, 10, 21, 19, 6, 9, 27, 37, 7, 60, 0)
s = 3: (0, 46, 8, 18, 43, 11, 11, 16, 59, 6, 35, 0)
s = 4: (0, 41, 11, 22, 32, 13, 10, 16, 23, 6, 49, 0)
s = 5: (0, 41, 14, 24, 34, 7, 11, 20, 30, 4, 54, 0)
s = 6: (0, 56, 13, 19, 17, 8, 7, 29, 37, 7, 64, 0)
s = 7: (0, 60, 10, 37, 27, 6, 6, 14, 27, 9, 67, 0)
s = 8: (0, 67, 12, 23, 17, 11, 6, 37, 23, 6, 29, 0)
s = 9: (0, 59, 12, 35, 32, 10, 8, 16, 31, 5, 32, 0)
s = 10: (0, 56, 12, 20, 23, 8, 10, 33, 30, 5, 57, 0)
s = 11: (0, 40, 11, 27, 32, 9, 14, 30, 46, 8, 23, 0)
s = 12: (0, 36, 8, 28, 30, 10, 7, 32, 33, 7, 49, 0)
s = 13: (0, 51, 10, 18, 49, 8, 11, 23, 37, 6, 30, 0)
s = 14: (0, 49, 17, 19, 37, 6, 7, 42, 22, 6, 26, 0)
s = 15: (0, 46, 12, 20, 31, 7, 12, 38, 26, 5, 63, 0)
s = 16: (0, 37, 10, 17, 28, 5, 7, 16, 33, 4, 27, 0)
s = 17: (0, 27, 8, 36, 18, 9, 10, 24, 42, 6, 23, 0)
s = 18: (0, 47, 11, 25, 39, 7, 7, 19, 25, 10, 59, 0)
s = 19: (0, 44, 9, 24, 30, 8, 11, 41, 18, 8, 29, 0)
s = 20: (0, 34, 9, 23, 41, 13, 11, 31, 44, 6, 31, 0)
s = 21: (0, 44, 10, 21, 36, 8, 14, 26, 33, 6, 26, 0)
s = 22: (0, 31, 14, 18, 49, 8, 11, 18, 26, 9, 32, 0)
s = 23: (0, 40, 9, 34, 22, 9, 9, 27, 26, 8, 60, 0)
s = 24: (0, 25, 9, 16, 30, 7, 12, 21, 19, 8, 53, 0)
s = 25: (0, 55, 7, 25, 39, 11, 10, 21, 25, 7, 45, 0)
s = 26: (0, 30, 9, 17, 33, 11, 11, 28, 50, 8, 59, 0)
s = 27: (0, 50, 11, 39, 22, 10, 8, 33, 21, 8, 27, 0)
s = 28: (0, 51, 9, 18, 22, 9, 7, 30, 25, 7, 70, 0)
s = 29: (0, 32, 12, 29, 22, 13, 13, 21, 33, 8, 26, 0)
s = 30: (0, 25, 9, 21, 26, 8, 7, 20, 54, 5, 45, 0)
s = 31: (0, 76, 10, 16, 29, 10, 9, 33, 24, 6, 62, 0)
s = 32: (0, 40, 7, 33, 16, 8, 14, 22, 24, 4, 37, 0)
s = 33: (0, 35, 9, 24, 35, 10, 10, 42, 31, 7, 41, 0)
s = 34: (0, 30, 10, 13, 21, 6, 9, 33, 35, 9, 39, 0)
s = 35: (0, 57, 16, 37, 31, 5, 7, 45, 37, 5, 31, 0)
s = 36: (0, 39, 16, 22, 41, 8, 10, 34, 45, 4, 53, 0)
s = 37: (0, 28, 9, 20, 48, 10, 9, 19, 38, 6, 54, 0)
s = 38: (0, 66, 11, 23, 24, 11, 11, 37, 33, 8, 28, 0)
s = 39: (0, 34, 15, 18, 37, 6, 6, 19, 29, 7, 24, 0)
s = 40: (0, 56, 11, 36, 38, 6, 8, 16, 28, 4, 49, 0)
s = 41: (0, 41, 7, 20, 17, 11, 7, 15, 48, 11, 45, 0)
s = 42: (0, 29, 8, 16, 20, 6, 7, 33, 35, 5, 41, 0)
s = 43: (0, 39, 16, 29, 46, 7, 9, 33, 34, 4, 59, 0)
s = 44: (0, 34, 8, 16, 44, 7, 12, 31, 32, 5, 37, 0)
s = 45: (0, 49, 8, 15, 45, 9, 9, 22, 36, 5, 44, 0)
s = 46: (0, 72, 7, 19, 22, 8, 8, 15, 49, 5, 36, 0)
s = 47: (0, 49, 8, 18, 25, 16, 6, 14, 38, 6, 43, 0)
s = 48: (0, 51, 8, 16, 24, 8, 9, 23, 22, 5, 28, 0)
s = 49: (0, 52, 8, 31, 36, 8, 7, 33, 26, 6, 38, 0)
s = 50: (0, 33, 10, 36, 18, 7, 9, 19, 41, 5, 41, 0)
s = 51: (0, 41, 7, 16, 25, 10, 7, 35, 20, 5, 30, 0)
s = 52: (0, 33, 9, 22, 33, 12, 7, 19, 29, 7, 42, 0)
s = 53: (0, 38, 13, 22, 27, 6, 6, 26, 38, 4, 39, 0)
s = 54: (0, 43, 8, 27, 19, 5, 12, 22, 36, 8, 49, 0)
s = 55: (0, 36, 10, 15, 19, 11, 13, 19, 46, 7, 26, 0)
s = 56: (0, 31, 10, 25, 27, 5, 11, 18, 34, 5, 43, 0)
s = 57: (0, 54, 10, 20, 26, 9, 7, 21, 50, 8, 46, 0)
s = 58: (0, 29, 11, 17, 18, 7, 7, 35, 33, 6, 24, 0)
s = 59: (0, 28, 10, 25, 23, 7, 10, 14, 34, 7, 67, 0)
s = 60: (0, 40, 9, 15, 16, 9, 9, 30, 20, 9, 34, 0)
s = 61: (0, 31, 11, 21, 32, 11, 6, 24, 33, 6, 35, 0)
s = 62: (0, 27, 6, 19, 48, 11, 15, 14, 29, 6, 43, 0)
s = 63: (0, 39, 8, 15, 18, 10, 6, 31, 42, 7, 36, 0)
s = 64: (0, 51, 12, 14, 28, 8, 7, 26, 21, 6, 23, 0)
s = 65: (0, 44, 11, 20, 24, 9, 7, 36, 36, 9, 34, 0)
s = 66: (0, 31, 9, 21, 19, 10, 6, 17, 25, 6, 37, 0)
s = 67: (0, 42, 13, 24, 25, 5, 8, 20, 51, 5, 56, 0)
s = 68: (0, 54, 9, 22, 27, 6, 10, 22, 56, 6, 39, 0)
s = 69: (0, 31, 14, 15, 21, 6, 7, 18, 37, 7, 47, 0)
s = 70: (0, 29, 14, 22, 30, 10, 9, 23, 30, 5, 45, 0)
s = 71: (0, 47, 8, 24, 28, 10, 8, 29, 21, 4, 62, 0)
s = 72: (0, 66, 14, 19, 27, 11, 7, 22, 23, 9, 53, 0)
s = 73: (0, 43, 10, 29, 23, 5, 14, 20, 22, 8, 50, 0)
s = 74: (0, 35, 14, 18, 26, 9, 10, 38, 38, 10, 28, 0)
s = 75: (0, 28, 14, 29, 39, 9, 6, 17, 36, 7, 51, 0)
s = 76: (0, 49, 13, 20, 23, 8, 7, 24, 29, 6, 33, 0)
s = 77: (0, 40, 15, 34, 23, 13, 9, 21, 27, 7, 58, 0)
s = 78: (0, 30, 8, 16, 26, 11, 10, 25, 38, 7, 49, 0)
s = 79: (0, 35, 13, 18, 35, 10, 10, 22, 29, 9, 44, 0)
s = 80: (0, 26, 9, 17, 25, 10, 12, 28, 35, 4, 58, 0)
s = 81: (0, 34, 7, 17, 25, 14, 13, 27, 35, 10, 55, 0)
s = 82: (0, 41, 9, 31, 21, 13, 12, 23, 36, 4, 62, 0)
s = 83: (0, 58, 11, 39, 31, 7, 8, 18, 49, 9, 35, 0)
s = 84: (0, 37, 13, 31, 47, 6, 11, 16, 41, 5, 45, 0)
s = 85: (0, 74, 10, 22, 41, 10, 7, 31, 43, 7, 51, 0)
s = 86: (0, 32, 8, 38, 22, 11, 11, 19, 27, 7, 36, 0)
s = 87: (0, 35, 11, 23, 32, 13, 9, 22, 31, 8, 33, 0)
s = 88: (0, 49, 7, 14, 21, 8, 11, 25, 29, 9, 33, 0)
s = 89: (0, 43, 12, 19, 36, 10, 11, 31, 37, 5, 36, 0)
s = 90: (0, 45, 6, 21, 35, 9, 7, 19, 18, 12, 32, 0)
s = 91: (0, 35, 10, 28, 38, 9, 6, 31, 30, 7, 47, 0)
s = 92: (0, 27, 11, 28, 35, 10, 9, 31, 41, 5, 73, 0)
s = 93: (0, 42, 11, 35, 40, 11, 10, 22, 31, 9, 39, 0)
s = 94: (0, 63, 12, 25, 24, 11, 14, 17, 38, 10, 27, 0)
s = 95: (0, 52, 7, 35, 25, 5, 7, 45, 45, 9, 39, 0)
s = 96: (0, 35, 12, 33, 23, 13, 8, 26, 21, 7, 56, 0)
s = 97: (0, 26, 16, 23, 26, 12, 14, 29, 21, 8, 42, 0)
s = 98: (0, 36, 10, 30, 27, 10, 5, 24, 33, 5, 48, 0)
s = 99: (0, 39, 10, 32, 25, 13, 7, 23, 26, 5, 35, 0)
s = 100: (0, 34, 10, 24, 29, 7, 15, 21, 33, 9, 40, 0)
s = 101: (0, 27, 11, 18, 28, 10, 10, 29, 34, 6, 54, 0)
s = 102: (0, 66, 13, 38, 22, 10, 8, 34, 31, 7, 44, 0)
s = 103: (0, 23, 9, 37, 17, 5, 7, 19, 27, 4, 30, 0)
s = 104: (0, 29, 9, 25, 38, 8, 10, 21, 33, 8, 41, 0)
s = 105: (0, 49, 8, 29, 37, 7, 6, 24, 47, 8, 48, 0)
s = 106: (0, 30, 6, 29, 41, 7, 14, 20, 28, 4, 47, 0)
s = 107: (0, 51, 11, 18, 25, 12, 11, 21, 30, 10, 39, 0)
s = 108: (0, 37, 6, 22, 31, 9, 11, 26, 27, 7, 32, 0)
s = 109: (0, 53, 7, 20, 16, 11, 6, 23, 31, 6, 42, 0)
s = 110: (0, 53, 9, 33, 34, 9, 9, 17, 37, 5, 27, 0)
s = 111: (0, 34, 7, 19, 38, 10, 10, 18, 32, 7, 39, 0)
s = 112: (0, 46, 10, 25, 32, 13, 8, 20, 37, 6, 41, 0)
s = 113: (0, 61, 9, 26, 19, 7, 7, 29, 26, 5, 30, 0)
s = 114: (0, 29, 7, 19, 37, 9, 12, 31, 41, 5, 30, 0)
s = 115: (0, 24, 11, 25, 17, 9, 7, 19, 47, 5, 59, 0)
s = 116: (0, 35, 14, 34, 19, 6, 9, 31, 30, 4, 35, 0)
s = 117: (0, 38, 10, 21, 19, 9, 7, 26, 44, 8, 46, 0)
s = 118: (0, 58, 10, 38, 31, 5, 6, 40, 28, 7, 42, 0)
s = 119: (0, 28, 13, 26, 28, 8, 8, 14, 35, 8, 29, 0)
s = 120: (0, 63, 18, 24, 37, 12, 10, 32, 40, 5, 43, 0)
s = 121: (0, 54, 6, 21, 29, 6, 10, 22, 24, 7, 52, 0)
s = 122: (0, 35, 14, 27, 26, 5, 6, 15, 48, 8, 41, 0)
s = 123: (0, 48, 14, 26, 33, 9, 10, 24, 38, 5, 45, 0)
s = 124: (0, 37, 13, 38, 27, 5, 8, 32, 33, 7, 70, 0)
s = 125: (0, 53, 16, 29, 33, 8, 8, 27, 39, 5, 34, 0)
s = 126: (0, 50, 12, 30, 39, 11, 10, 23, 32, 6, 47, 0)
s = 127: (0, 74, 7, 22, 20, 11, 6, 14, 35, 4, 53, 0)
s = 128: (0, 38, 13, 16, 35, 11, 13, 34, 38, 8, 27, 0)
s = 129: (0, 66, 10, 26, 39, 8, 8, 28, 28, 6, 42, 0)
s = 130: (0, 44, 7, 38, 20, 9, 8, 19, 45, 5, 70, 0)
s = 131: (0, 26, 13, 27, 35, 10, 13, 16, 24, 6, 47, 0)
s = 132: (0, 43, 9, 31, 29, 5, 11, 29, 31, 6, 48, 0)
s = 133: (0, 60, 15, 22, 24, 9, 12, 33, 33, 7, 37, 0)
s = 134: (0, 30, 12, 21, 40, 7, 9, 27, 37, 6, 26, 0)
s = 135: (0, 69, 9, 19, 24, 11, 8, 22, 31, 10, 39, 0)
s = 136: (0, 30, 19, 19, 17, 6, 14, 36, 39, 6, 49, 0)
s = 137: (0, 66, 16, 27, 42, 13, 13, 27, 30, 6, 44, 0)
s = 138: (0, 33, 7, 22, 21, 7, 9, 21, 19, 8, 64, 0)
s = 139: (0, 45, 15, 20, 31, 7, 12, 21, 42, 5, 60, 0)
s = 140: (0, 46, 13, 19, 25, 12, 10, 22, 38, 8, 38, 0)
s = 141: (0, 46, 10, 24, 39, 13, 9, 18, 38, 4, 63, 0)
s = 142: (0, 26, 11, 17, 38, 7, 8, 20, 31, 7, 46, 0)
s = 143: (0, 42, 9, 30, 21, 8, 8, 21, 31, 6, 52, 0)
s = 144: (0, 25, 10, 34, 42, 12, 12, 19, 32, 6, 33, 0)
s = 145: (0, 50, 10, 20, 49, 7, 10, 35, 25, 6, 26, 0)
s = 146: (0, 49, 11, 31, 22, 14, 13, 20, 46, 9, 40, 0)
s = 147: (0, 47, 11, 17, 29, 8, 12, 33, 42, 7, 31, 0)
s = 148: (0, 50, 13, 33, 34, 8, 8, 34, 46, 5, 42, 0)
s = 149: (0, 55, 7, 26, 30, 9, 7, 15, 42, 7, 27, 0)
s = 150: (0, 39, 9, 39, 21, 8, 9, 26, 26, 7, 51, 0)
s = 151: (0, 32, 9, 17, 28, 9, 8, 18, 41, 4, 47, 0)
s = 152: (0, 37, 13, 38, 32, 16, 8, 21, 46, 8, 47, 0)
s = 153: (0, 27, 11, 31, 27, 7, 9, 15, 45, 7, 32, 0)
s = 154: (0, 32, 7, 18, 20, 7, 12, 14, 30, 8, 37, 0)
s = 155: (0, 30, 14, 36, 28, 6, 15, 20, 40, 7, 42, 0)
s = 156: (0, 40, 12, 30, 23, 12, 13, 35, 33, 10, 39, 0)
s = 157: (0, 47, 13, 31, 21, 11, 12, 20, 45, 7, 58, 0)
s = 158: (0, 62, 17, 19, 32, 8, 11, 18, 31, 7, 29, 0)
s = 159: (0, 25, 10, 25, 36, 8, 8, 21, 25, 5, 44, 0)
s = 160: (0, 54, 8, 21, 30, 11, 9, 21, 27, 4, 62, 0)
s = 161: (0, 73, 8, 22, 20, 8, 11, 23, 20, 5, 25, 0)
s = 162: (0, 28, 9, 26, 33, 6, 10, 32, 24, 6, 38, 0)
s = 163: (0, 36, 11, 27, 28, 12, 10, 13, 43, 7, 31, 0)
s = 164: (0, 37, 14, 28, 21, 8, 6, 33, 25, 8, 33, 0)
s = 165: (0, 39, 8, 18, 42, 10, 6, 23, 41, 5, 60, 0)
s = 166: (0, 32, 6, 17, 32, 6, 14, 31, 25, 6, 34, 0)
s = 167: (0, 30, 11, 19, 26, 5, 10, 24, 30, 7, 37, 0)
s = 168: (0, 35, 13, 27, 29, 9, 11, 22, 23, 8, 30, 0)
s = 169: (0, 35, 12, 20, 26, 7, 10, 30, 31, 7, 64, 0)
s = 170: (0, 43, 10, 24, 44, 7, 8, 26, 35, 4, 40, 0)
s = 171: (0, 33, 16, 14, 28, 12, 7, 25, 32, 6, 47, 0)
s = 172: (0, 37, 12, 21, 36, 7, 8, 40, 32, 7, 62, 0)
s = 173: (0, 57, 8, 24, 35, 8, 11, 18, 21, 6, 30, 0)
s = 174: (0, 27, 9, 30, 24, 13, 11, 30, 30, 5, 53, 0)
s = 175: (0, 27, 8, 19, 15, 5, 12, 21, 37, 6, 33, 0)
s = 176: (0, 40, 13, 32, 42, 11, 10, 25, 25, 7, 38, 0)
s = 177: (0, 50, 18, 41, 22, 7, 10, 29, 34, 4, 39, 0)
s = 178: (0, 41, 16, 19, 36, 5, 9, 15, 43, 5, 47, 0)
s = 179: (0, 38, 13, 19, 28, 10, 6, 34, 44, 5, 47, 0)
s = 180: (0, 47, 8, 17, 40, 10, 13, 42, 26, 9, 43, 0)
s = 181: (0, 46, 11, 14, 27, 11, 11, 19, 41, 4, 36, 0)
s = 182: (0, 52, 13, 32, 18, 8, 12, 34, 22, 7, 59, 0)
s = 183: (0, 40, 8, 16, 28, 8, 6, 20, 30, 5, 29, 0)
s = 184: (0, 43, 13, 29, 37, 10, 7, 38, 21, 5, 41, 0)
s = 185: (0, 42, 14, 28, 20, 6, 16, 20, 26, 5, 41, 0)
s = 186: (0, 43, 13, 29, 15, 8, 13, 26, 40, 9, 53, 0)
s = 187: (0, 32, 11, 21, 22, 7, 12, 28, 23, 6, 23, 0)
s = 188: (0, 42, 8, 31, 30, 12, 8, 20, 43, 5, 29, 0)
s = 189: (0, 45, 12, 27, 27, 12, 17, 17, 22, 4, 23, 0)
s = 190: (0, 50, 9, 23, 28, 6, 7, 25, 37, 5, 42, 0)
s = 191: (0, 51, 10, 22, 25, 11, 8, 20, 26, 7, 51, 0)
s = 192: (0, 35, 13, 26, 41, 5, 13, 29, 48, 6, 35, 0)
s = 193: (0, 54, 14, 14, 27, 9, 10, 15, 29, 6, 37, 0)
s = 194: (0, 71, 11, 27, 31, 7, 12, 20, 24, 4, 50, 0)
s = 195: (0, 24, 7, 30, 32, 7, 9, 14, 30, 5, 39, 0)
s = 196: (0, 59, 11, 22, 22, 7, 9, 15, 37, 5, 53, 0)
s = 197: (0, 49, 12, 35, 23, 8, 15, 32, 37, 4, 45, 0)
s = 198: (0, 44, 14, 18, 33, 7, 11, 21, 28, 6, 29, 0)
s = 199: (0, 56, 11, 27, 23, 8, 12, 28, 23, 5, 23, 0)
s = 200: (0, 40, 15, 26, 33, 7, 10, 24, 28, 5, 37, 0)
************************************************************************
ES/LS-VALUES:
jobnr.   ES(i)    LS(i)
------------------------------------------------------------------------
  0        0        0
  1        0       55
  2        0       67
  3        0       58
  4        5       64
  5       11       66
  6        5       72
  7       19       74
  8       19       74
  9       24       80
 10       12       71
 11       26       82
************************************************************************
BIG-M-VALUES:
M1 = 40, M2 = 131
************************************************************************
